words_hard_train/2795.qaiger
aag 114 24 0 1 90
2
4
12
16
18
26
44
46
64
72
74
88
100
102
116
128
130
144
156
158
172
182
184
200
228
6 3 5
8 2 4
10 7 9
14 10 12
20 17 19
22 16 18
24 21 23
28 25 27
30 14 29
32 25 9
34 24 8
36 33 35
38 36 26
40 31 39
42 35 23
48 45 47
50 44 46
52 49 51
54 42 53
56 43 52
58 55 57
60 40 59
62 41 58
66 63 65
68 61 67
70 57 51
76 73 75
78 72 74
80 77 79
82 70 81
84 71 80
86 83 85
90 86 88
92 69 91
94 87 89
96 93 95
98 85 79
104 101 103
106 100 102
108 105 107
110 98 109
112 99 108
114 111 113
118 115 117
120 96 119
122 114 116
124 121 123
126 113 107
132 129 131
134 128 130
136 133 135
138 126 137
140 127 136
142 139 141
146 143 145
148 125 147
150 142 144
152 149 151
154 141 135
160 157 159
162 156 158
164 161 163
166 154 165
168 155 164
170 167 169
174 170 172
176 152 175
178 171 173
180 177 179
186 182 185
188 183 184
190 187 189
192 169 163
194 191 193
196 190 192
198 195 197
202 199 201
204 181 203
206 198 200
208 205 207
210 143 171
212 59 37
214 87 11
216 212 214
218 216 115
220 210 218
222 220 198
224 208 223
226 209 222
228 225 227
i0 1 x1[0]
i1 2 y1[0]
i2 1 x2[0]
i3 1 x1[1]
i4 2 y1[1]
i5 1 x2[1]
i6 1 x1[2]
i7 2 y1[2]
i8 1 x2[2]
i9 1 x1[3]
i10 2 y1[3]
i11 1 x2[3]
i12 1 x1[4]
i13 2 y1[4]
i14 1 x2[4]
i15 1 x1[5]
i16 2 y1[5]
i17 1 x2[5]
i18 1 x1[6]
i19 2 y1[6]
i20 1 x2[6]
i21 1 x1[7]
i22 2 y1[7]
i23 1 x2[7]
o0 bv[0]
c
simplified
  <
    1 x2
    subtract
      >> 4
        1
      add
        1 x1
        2 y1
