words_hard_train/2795.qaiger.qdimacs
p cnf 114 271
a 32 1 64 36 100 6 8 72 44 13 78 50 22 86 58 91 0
e 2 3 4 5 7 9 10 11 12 14 15 16 17 18 19 20 21 23 24 25 26 27 28 29 30 31 33 34 35 37 38 39 40 41 42 43 45 46 47 48 49 51 52 53 54 55 56 57 59 60 61 62 63 65 66 67 68 69 70 71 73 74 75 76 77 79 80 81 82 83 84 85 87 88 89 90 92 93 94 95 96 97 98 99 101 102 103 104 105 106 107 108 109 110 111 112 113 114 0
1 2 3 0
-1 -3 0
-2 -3 0
-1 -2 4 0
1 -4 0
2 -4 0
3 4 5 0
-3 -5 0
-4 -5 0
-5 -6 7 0
5 -7 0
6 -7 0
8 9 10 0
-8 -10 0
-9 -10 0
-8 -9 11 0
8 -11 0
9 -11 0
10 11 12 0
-10 -12 0
-11 -12 0
12 13 14 0
-12 -14 0
-13 -14 0
-7 14 15 0
7 -15 0
-14 -15 0
12 4 16 0
-12 -16 0
-4 -16 0
-12 -4 17 0
12 -17 0
4 -17 0
16 17 18 0
-16 -18 0
-17 -18 0
-18 -13 19 0
18 -19 0
13 -19 0
15 19 20 0
-15 -20 0
-19 -20 0
17 11 21 0
-17 -21 0
-11 -21 0
22 23 24 0
-22 -24 0
-23 -24 0
-22 -23 25 0
22 -25 0
23 -25 0
24 25 26 0
-24 -26 0
-25 -26 0
-21 26 27 0
21 -27 0
-26 -27 0
21 -26 28 0
-21 -28 0
26 -28 0
27 28 29 0
-27 -29 0
-28 -29 0
-20 29 30 0
20 -30 0
-29 -30 0
20 -29 31 0
-20 -31 0
29 -31 0
31 32 33 0
-31 -33 0
-32 -33 0
30 33 34 0
-30 -34 0
-33 -34 0
28 25 35 0
-28 -35 0
-25 -35 0
36 37 38 0
-36 -38 0
-37 -38 0
-36 -37 39 0
36 -39 0
37 -39 0
38 39 40 0
-38 -40 0
-39 -40 0
-35 40 41 0
35 -41 0
-40 -41 0
35 -40 42 0
-35 -42 0
40 -42 0
41 42 43 0
-41 -43 0
-42 -43 0
-43 -44 45 0
43 -45 0
44 -45 0
34 45 46 0
-34 -46 0
-45 -46 0
43 44 47 0
-43 -47 0
-44 -47 0
46 47 48 0
-46 -48 0
-47 -48 0
42 39 49 0
-42 -49 0
-39 -49 0
50 51 52 0
-50 -52 0
-51 -52 0
-50 -51 53 0
50 -53 0
51 -53 0
52 53 54 0
-52 -54 0
-53 -54 0
-49 54 55 0
49 -55 0
-54 -55 0
49 -54 56 0
-49 -56 0
54 -56 0
55 56 57 0
-55 -57 0
-56 -57 0
57 58 59 0
-57 -59 0
-58 -59 0
-48 59 60 0
48 -60 0
-59 -60 0
-57 -58 61 0
57 -61 0
58 -61 0
60 61 62 0
-60 -62 0
-61 -62 0
56 53 63 0
-56 -63 0
-53 -63 0
64 65 66 0
-64 -66 0
-65 -66 0
-64 -65 67 0
64 -67 0
65 -67 0
66 67 68 0
-66 -68 0
-67 -68 0
-63 68 69 0
63 -69 0
-68 -69 0
63 -68 70 0
-63 -70 0
68 -70 0
69 70 71 0
-69 -71 0
-70 -71 0
71 72 73 0
-71 -73 0
-72 -73 0
62 73 74 0
-62 -74 0
-73 -74 0
-71 -72 75 0
71 -75 0
72 -75 0
74 75 76 0
-74 -76 0
-75 -76 0
70 67 77 0
-70 -77 0
-67 -77 0
78 79 80 0
-78 -80 0
-79 -80 0
-78 -79 81 0
78 -81 0
79 -81 0
80 81 82 0
-80 -82 0
-81 -82 0
-77 82 83 0
77 -83 0
-82 -83 0
77 -82 84 0
-77 -84 0
82 -84 0
83 84 85 0
-83 -85 0
-84 -85 0
-85 -86 87 0
85 -87 0
86 -87 0
-76 87 88 0
76 -88 0
-87 -88 0
85 86 89 0
-85 -89 0
-86 -89 0
88 89 90 0
-88 -90 0
-89 -90 0
-91 92 93 0
91 -93 0
-92 -93 0
91 -92 94 0
-91 -94 0
92 -94 0
93 94 95 0
-93 -95 0
-94 -95 0
84 81 96 0
-84 -96 0
-81 -96 0
95 96 97 0
-95 -97 0
-96 -97 0
-95 -96 98 0
95 -98 0
96 -98 0
97 98 99 0
-97 -99 0
-98 -99 0
99 100 101 0
-99 -101 0
-100 -101 0
90 101 102 0
-90 -102 0
-101 -102 0
-99 -100 103 0
99 -103 0
100 -103 0
102 103 104 0
-102 -104 0
-103 -104 0
71 85 105 0
-71 -105 0
-85 -105 0
29 18 106 0
-29 -106 0
-18 -106 0
43 5 107 0
-43 -107 0
-5 -107 0
-106 -107 108 0
106 -108 0
107 -108 0
-108 57 109 0
108 -109 0
-57 -109 0
-105 -109 110 0
105 -110 0
109 -110 0
-110 -99 111 0
110 -111 0
99 -111 0
-104 111 112 0
104 -112 0
-111 -112 0
104 -111 113 0
-104 -113 0
111 -113 0
112 113 114 0
-112 -114 0
-113 -114 0
114 0
